2
Coordinates from ORCA-job H E  -1.143395795219
  H      -0.500000      0.000000      0.000000
  H       0.500000      0.000000      0.000000
2
Coordinates from ORCA-job H E  -1.163593736448
  H      -0.420623      0.000000      0.000000
  H       0.420623      0.000000      0.000000
2
Coordinates from ORCA-job H E  -1.162780450419
  H      -0.342608      0.000000      0.000000
  H       0.342608      0.000000      0.000000
2
Coordinates from ORCA-job H E  -1.167011210060
  H      -0.388405      0.000000      0.000000
  H       0.388405      0.000000      0.000000
2
Coordinates from ORCA-job H E  -1.167161738023
  H      -0.382213      0.000000      0.000000
  H       0.382213      0.000000      0.000000
2
Coordinates from ORCA-job H E  -1.167169706280
  H      -0.380366      0.000000      0.000000
  H       0.380366      0.000000      0.000000
2
Coordinates from ORCA-job H E  -1.167169673302
  H      -0.380456      0.000000      0.000000
  H       0.380456      0.000000      0.000000
